INCAR created by Atomic Simulation Environment
 ENCUT = 600.000000
 SIGMA = 0.050000
 PREC = Accurate
 ISPIN = 2
 NBANDS = 6
 ISMEAR = 1
 LREAL = .FALSE.
