 C                                      
   1.00000000000000     
     2.4664715273212687    0.0000000000000000    0.0000000000000000
    -1.2332357636606333    2.1360270003712221    0.0000000000000000
     0.0000000000000000    0.0000000000000000    7.0754765625994800
   C 
     4
Direct
  0.0000000000000000  0.0000000000000000  0.0000000000000000
  0.3333333333333357  0.6666666666666643  0.0000000000000000
  0.3333333333333357  0.6666666666666643  0.5000000000000000
  0.6666666666666643  0.3333333333333357  0.5000000000000000
 
  0.00000000E+00  0.00000000E+00  0.00000000E+00
  0.00000000E+00  0.00000000E+00  0.00000000E+00
  0.00000000E+00  0.00000000E+00  0.00000000E+00
  0.00000000E+00  0.00000000E+00  0.00000000E+00
