 C  O 
 1.0000000000000000
    10.0000000000000000    0.0000000000000000    0.0000000000000000
     0.0000000000000000   10.0000000000000000    0.0000000000000000
     0.0000000000000000    0.0000000000000000   10.0000000000000000
   1   2
Cartesian
  5.0000000000000000  5.0000000000000000  5.0000000000000000
  3.8233100187563802  5.0000000000000000  5.0000000000000000
  6.1766899812436193  5.0000000000000000  5.0000000000000000
