 C  O 
 1.0000000000000000
    10.0000000000000000    0.0000000000000000    0.0000000000000000
     0.0000000000000000   10.0000000000000000    0.0000000000000000
     0.0000000000000000    0.0000000000000000   10.0000000000000000
   1   1
Cartesian
  4.4283290929041197  5.0000000000000000  5.0000000000000000
  5.5716709070958803  5.0000000000000000  5.0000000000000000
