Ta 
 1.0000000000000000
    -1.6525000000000001    1.6525000000000001    1.6525000000000001
     1.6525000000000001   -1.6525000000000001    1.6525000000000001
     1.6525000000000001    1.6525000000000001   -1.6525000000000001
   1
Cartesian
  0.0000000000000000  0.0000000000000000  0.0000000000000000
