 C                                      
   1.00000000000000     
     2.4611999999999998    0.0000000000000000    0.0000000000000000
    -1.2305999999999995    2.1314617237942604    0.0000000000000000
     0.0000000000000000    0.0000000000000000    6.7079000000000004
   C 
     4
Direct
  0.0000000000000000  0.0000000000000000  0.0000000000000000
  0.3333333333333357  0.6666666666666643  0.0000000000000000
  0.3333333333333357  0.6666666666666643  0.5000000000000000
  0.6666666666666643  0.3333333333333357  0.5000000000000000
 
  0.00000000E+00  0.00000000E+00  0.00000000E+00
  0.00000000E+00  0.00000000E+00  0.00000000E+00
  0.00000000E+00  0.00000000E+00  0.00000000E+00
  0.00000000E+00  0.00000000E+00  0.00000000E+00
