 C Ta                                   
   1.00000000000000     
     0.0000000000000000    2.2175000000000002    2.2175000000000002
     2.2175000000000002    0.0000000000000000    2.2175000000000002
     2.2175000000000002    2.2175000000000002    0.0000000000000000
   C    Ta
     1     1
Direct
  0.5000000000000000  0.5000000000000000  0.5000000000000000
  0.0000000000000000  0.0000000000000000  0.0000000000000000
 
  0.00000000E+00  0.00000000E+00  0.00000000E+00
  0.00000000E+00  0.00000000E+00  0.00000000E+00
