KPOINTS created by Atomic Simulation Environment
0
Gamma
14 14 14
0.0 0.0 0.0
