 C Ta 
 1.0000000000000000
     0.0000000000000000    2.2475000000000001    2.2475000000000001
     2.2475000000000001    0.0000000000000000    2.2475000000000001
     2.2475000000000001    2.2475000000000001    0.0000000000000000
   1   1
Cartesian
  2.2475000000000001  2.2475000000000001  2.2475000000000001
  0.0000000000000000  0.0000000000000000  0.0000000000000000
