 C  O 
 1.0000000000000000
    10.0000000000000000    0.0000000000000000    0.0000000000000000
     0.0000000000000000   10.0000000000000000    0.0000000000000000
     0.0000000000000000    0.0000000000000000   10.0000000000000000
   1   2
Cartesian
  5.0000000000000000  5.0000000000000000  5.0000000000000000
  3.8232762346869364  5.0000000000000000  5.0000000000000000
  6.1767237653130636  5.0000000000000000  5.0000000000000000
