Ta                                      
   1.00000000000000     
     2.8665440865264920    0.0000000000000000    0.0000000000000000
    -0.9555146955088306    2.7026036828707731    0.0000000000000000
    -0.9555146955088302   -1.3513018414353870    2.3405234457274720
   Ta
     1
Direct
  0.0000000000000000  0.0000000000000000  0.0000000000000000
 
  0.00000000E+00  0.00000000E+00  0.00000000E+00
