INCAR created by Atomic Simulation Environment
 ENCUT = 400.000000
 SIGMA = 0.050000
 PREC = Accurate
 ISPIN = 2
 ISMEAR = 1
 ISTART = 0
 LORBIT = 11
 LREAL = .FALSE.
 MAGMOM = 1*6.0000 
