 C Ta                                   
   1.00000000000000     
     0.0000000000000000    2.2374999999999998    2.2374999999999998
     2.2374999999999998    0.0000000000000000    2.2374999999999998
     2.2374999999999998    2.2374999999999998    0.0000000000000000
   C    Ta
     1     1
Direct
  0.5000000000000000  0.5000000000000000  0.5000000000000000
  0.0000000000000000  0.0000000000000000  0.0000000000000000
 
  0.00000000E+00  0.00000000E+00  0.00000000E+00
  0.00000000E+00  0.00000000E+00  0.00000000E+00
