Ta 
 1.0000000000000000
     0.0000000000000000    2.1149999999999998    2.1149999999999998
     2.1149999999999998    0.0000000000000000    2.1149999999999998
     2.1149999999999998    2.1149999999999998    0.0000000000000000
   1
Cartesian
  0.0000000000000000  0.0000000000000000  0.0000000000000000
