Ta 
 1.0000000000000000
    -1.6750000000000000    1.6750000000000000    1.6750000000000000
     1.6750000000000000   -1.6750000000000000    1.6750000000000000
     1.6750000000000000    1.6750000000000000   -1.6750000000000000
   1
Cartesian
  0.0000000000000000  0.0000000000000000  0.0000000000000000
