 O 
 1.0000000000000000
     9.8000000000000007    0.0000000000000000    0.0000000000000000
     0.0000000000000000    9.9000000000000004    0.0000000000000000
     0.0000000000000000    0.0000000000000000   10.0000000000000000
   2
Cartesian
  0.0000000000000000  0.0000000000000000  0.0000000000000000
  1.2300000000000000  0.0000000000000000  0.0000000000000000
