Ta                                      
   1.00000000000000     
     0.0000000000000000    2.0649999999999999    2.0649999999999999
     2.0649999999999999    0.0000000000000000    2.0649999999999999
     2.0649999999999999    2.0649999999999999    0.0000000000000000
   Ta
     1
Direct
  0.0000000000000000  0.0000000000000000  0.0000000000000000
 
  0.00000000E+00  0.00000000E+00  0.00000000E+00
