Ta 
 1.0000000000000000
     0.0000000000000000    2.0649999999999999    2.0649999999999999
     2.0649999999999999    0.0000000000000000    2.0649999999999999
     2.0649999999999999    2.0649999999999999    0.0000000000000000
   1
Cartesian
  0.0000000000000000  0.0000000000000000  0.0000000000000000
