 O 
 1.0000000000000000
     9.8000000000000007    0.0000000000000000    0.0000000000000000
     0.0000000000000000    9.9000000000000004    0.0000000000000000
     0.0000000000000000    0.0000000000000000   10.0000000000000000
   2
Cartesian
  4.2809573248911974  4.9500000000000002  5.0000000000000000
  5.5190426751088033  4.9500000000000002  5.0000000000000000
