 C 
 1.0000000000000000
     2.4611999999999998    0.0000000000000000    0.0000000000000000
    -1.2305999999999995    2.1314617237942604    0.0000000000000000
     0.0000000000000000    0.0000000000000000    6.7079000000000004
   4
Cartesian
  0.0000000000000000  0.0000000000000000  0.0000000000000000
  0.0000000000000091  1.4209744825295019  0.0000000000000000
  0.0000000000000091  1.4209744825295019  3.3539500000000002
  1.2305999999999913  0.7104872412647585  3.3539500000000002
