 O                                      
   1.00000000000000     
     9.8000000000000007    0.0000000000000000    0.0000000000000000
     0.0000000000000000    9.9000000000000004    0.0000000000000000
     0.0000000000000000    0.0000000000000000   10.0000000000000000
   O 
     2
Direct
  0.0001878274721089  0.0000000000000000  0.0000000000000000
  0.1253223766095265  0.0000000000000000  0.0000000000000000
 
  0.00000000E+00  0.00000000E+00  0.00000000E+00
  0.00000000E+00  0.00000000E+00  0.00000000E+00
