KPOINTS created by Atomic Simulation Environment
0
Monkhorst-Pack
14 14 14
0.0 0.0 0.0
