 O                                      
   1.00000000000000     
     9.8000000000000007    0.0000000000000000    0.0000000000000000
     0.0000000000000000    9.9000000000000004    0.0000000000000000
     0.0000000000000000    0.0000000000000000   10.0000000000000000
   O 
     2
Direct
 -0.0002629329367025  0.0000000000000000  0.0000000000000000
  0.1257731370183379  0.0000000000000000  0.0000000000000000
 
  0.00000000E+00  0.00000000E+00  0.00000000E+00
  0.00000000E+00  0.00000000E+00  0.00000000E+00
