INCAR created by Atomic Simulation Environment
 ENCUT = 500.000000
 SIGMA = 0.050000
 EDIFFG = -5.00e-02
 PREC = Accurate
 ISMEAR = 1
 NSW = 50
 IBRION = 1
 ISIF = 2
 LREAL = .FALSE.
