 C  O 
 1.0000000000000000
    10.0000000000000000    0.0000000000000000    0.0000000000000000
     0.0000000000000000   10.0000000000000000    0.0000000000000000
     0.0000000000000000    0.0000000000000000   10.0000000000000000
   1   1
Cartesian
  4.4281976351660841  5.0000000000000000  5.0000000000000000
  5.5718023648339159  5.0000000000000000  5.0000000000000000
