INCAR created by Atomic Simulation Environment
 ENCUT = 150.000000
 SIGMA = 0.050000
 PREC = Accurate
 ISPIN = 2
 ISMEAR = 1
 LORBIT = 11
 LREAL = .FALSE.
